c generated 02-29-2024 15:37:21 with QBFuzz version 1.1.1
c qbfuzz.py --seed=1401388120 -v 10 -c 20
c 
p cnf 10 20
e 8 0
a 9 5 10 3 6 2 0
e 1 4 7 0
-1 -5 6 9 -10 -2 -3 0
-4 -9 -5 6 -10 0
7 -8 1 -10 -6 9 0
4 6 0
7 10 9 -6 -5 -3 -2 0
4 1 0
1 -4 -7 -8 -6 10 0
1 -5 0
4 -7 -8 -1 0
1 8 4 -5 10 0
-7 4 0
-8 4 3 6 -2 0
-1 8 -4 0
1 8 4 9 -10 3 -5 -6 0
-1 3 6 2 0
-1 8 -2 -5 -6 -10 -3 -9 0
4 -1 -7 3 0
1 8 7 -2 9 0
-4 1 8 -9 -6 -2 -3 0
4 7 -1 3 -6 9 2 0
